HUN,8,6,900
5,24,3,21,0,22,4,27,1,30,2,27
4,24,5,29,1,21,2,22,3,27,0,24
5,27,2,24,4,24,3,23,1,23,0,27
3,26,0,26,4,28,1,21,2,21,5,22
4,26,5,30,0,23,3,25,2,26,1,21
3,30,5,21,0,29,1,27,4,26,2,21
2,30,4,25,3,28,0,22,1,27,5,21
3,24,2,26,0,25,5,26,1,26,4,26
